100 22141302
24 17 74 40 26 87 33 70 47 84 52 19 27 13 60 68 61 36 4 76 39 18 23 44 37 5 22 99 55 43 73 50 59 91 41 69 64 15 30 81 79 90 58 29 71 16 75 6 86 2 63 7 89 3 34 46 48 10 92 95 9 96 53 67 83 25 97 35 12 88 14 62 54 77 42 32 31 28 38 21 78 20 98 49 72 65 45 82 11 8 93 100 56 94 1 85 66 51 80 57 
